############################################################################################
#                                      SECTION: varbas                                      
############################################################################################
 kptopt 1
 shiftk    0.5    0.5    0.5
 ngkpt 10 10 8
 nshiftk 1
 occopt 3
 nsppol 1
 ecut 43
 toldfe 1e-09
 nband 40
 nstep 200
############################################################################################
#                                      SECTION: vardev                                      
############################################################################################
 mem_test 0
############################################################################################
#                                      SECTION: varfil                                      
############################################################################################
 prtwf 0
############################################################################################
#                                       SECTION: vargs                                      
############################################################################################
 chksymbreak 0
 tsmear 0.0005
 nspinor 1
 nspden 1
 qpt    0.0000000000    0.0000000000    0.0000000000
############################################################################################
#                                      SECTION: varpaw                                      
############################################################################################

############################################################################################
#                                      SECTION: varrlx                                      
############################################################################################
 ecutsm 0.5
############################################################################################
#                                         STRUCTURE                                         
############################################################################################
 acell    1.0    1.0    1.0
 xred
    0.6666700000    0.3333400000    0.8250200000
    0.3333300000    0.6666600000    0.1749800000
    0.3333300000    0.6666600000    0.3250200000
    0.6666700000    0.3333400000    0.6749800000
 rprim
   -3.7866237785   -6.5586247735    0.0000000000
   -3.7866237785    6.5586247735    0.0000000000
    0.0000000000    0.0000000000   -9.4544321288
 typat
 1 1 1
 1
 natom 4
 ntypat 1
 znucl 1


#<JSON>
#{
#    "pseudos": [
#        {
#            "l_max": 1, 
#            "Z_val": 1.0, 
#            "filepath": "/home/acad/ucl-naps/setten/software/pseudo_dojo/pseudo_dojo/pseudos/ONCVPSP-PBE-PDv0.3/H/test/H.psp8", 
#            "symbol": "H", 
#            "@module": "pymatgen.io.abinitio.pseudos", 
#            "Z": 1, 
#            "type": "NcAbinitPseudo", 
#            "basename": "H.psp8", 
#            "@class": "NcAbinitPseudo", 
#            "md5": "13198abb7506a840b7d46ef46b54d789"
#        }
#    ]
#}
#</JSON>
