############################################################################################
#                                      SECTION: varbas                                      
############################################################################################
 kptopt 1
 shiftk    0.5    0.5    0.5
 ngkpt 9 9 9
 nshiftk 1
 occopt 3
 nsppol 1
 ecut 28
 toldfe 1e-09
 nband 800
 nstep 200
############################################################################################
#                                      SECTION: vardev                                      
############################################################################################
 mem_test 0
############################################################################################
#                                      SECTION: varfil                                      
############################################################################################
 prtwf 0
############################################################################################
#                                       SECTION: vargs                                      
############################################################################################
 chksymbreak 0
 tsmear 0.0005
 nspinor 1
 nspden 1
 chkprim 0
 qpt    0.0000000000    0.0000000000    0.0000000000
############################################################################################
#                                      SECTION: varpaw                                      
############################################################################################

############################################################################################
#                                      SECTION: varrlx                                      
############################################################################################
 ecutsm 0.5
############################################################################################
#                                         STRUCTURE                                         
############################################################################################
 acell    1.0    1.0    1.0
 xred
    0.0000000000    0.0000000000    0.0000000000
    0.5000000000    0.0000000000    0.5000000000
    0.5000000000    0.5000000000    0.0000000000
    0.0000000000    0.5000000000    0.5000000000
 rprim
   10.4408691707    0.0000000000    0.0000000000
    0.0000000000   10.4408691707    0.0000000000
    0.0000000000    0.0000000000   10.4408691707
 typat
 1 1 1
 1
 natom 4
 ntypat 1
 znucl 20


#<JSON>
#{
#    "pseudos": [
#        {
#            "l_max": 2, 
#            "Z_val": 10.0, 
#            "filepath": "/home/acad/ucl-naps/setten/software/pseudo_dojo/pseudo_dojo/pseudos/ONCVPSP-PBE-PDv0.3/Ca/Ca-sp.psp8", 
#            "symbol": "Ca", 
#            "@module": "pymatgen.io.abinitio.pseudos", 
#            "Z": 20, 
#            "type": "NcAbinitPseudo", 
#            "basename": "Ca-sp.psp8", 
#            "@class": "NcAbinitPseudo", 
#            "md5": "4c22760d6ac36e35c46407bf1e1b7c5f"
#        }
#    ]
#}
#</JSON>
